crystal structure from VMoWS2 with Hexaginal structure     #Header line
1.0
        8.6699999603         5.0399998944         0.0000000000
       -8.6699998215         5.0400001332         0.0000000000
        0.0000000000         0.0000000000        30.0000000000
   V   Mo  W    S
   23  42  74   16
Cartesian
     2.890000119         5.040000124         0.000000000
     2.890000073         1.680000015         0.000000000
     5.780000146         3.360000030         0.000000000
    -2.890000027         1.680000094         0.000000000
     0.000000000         0.000000000         0.000000000
     0.000000093         6.720000219         0.000000000
    -5.780000053         3.360000189         0.000000000
     0.000000046         3.360000109         0.000000000
    -2.889999980         5.040000204         0.000000000
    -0.968999907         1.679000012        28.661999702
     0.968999953         1.678999985         1.337999962
    -3.858999934         3.359000106        28.661999702
    -1.921000073         3.359000080         1.337999962
    -6.748999702         5.039000050        28.661999702
    -4.811000100         5.039000174         1.337999962
     1.921000166         3.359000027        28.661999702
     3.859000026         3.359000000         1.337999962
    -0.968999861         5.039000121        28.661999702
     0.968999999         5.039000094         1.337999962
    -3.858999629         6.719000065        28.661999702
    -1.921000027         6.719000189         1.337999962
     4.811000239         5.039000041        28.661999702
     6.748999841         5.038999865         1.337999962
     1.921000212         6.719000136        28.661999702
     3.858999814         6.718999959         1.337999962
    -0.968999556         8.399000080        28.661999702
     0.968999787         8.399000054         1.337999962
